c 1 _r
c 2 _r_1
c 3 _r_1_6_7
c 4 _r_1_6_8
c 5 _r_1_6_9
c 6 _r_1_6_22
c 7 _r_1_6_23
c 8 _r_1_6_44
c 9 _r_11
c 10 _r_11_12_13
c 11 _r_11_12_15
c 12 _r_11_12_53
c 13 _r_16
c 14 _r_16_17_18
c 15 _r_16_17_19
c 16 _r_16_17_20
c 17 _r_16_17_21
c 18 _r_16_17_24
c 19 _r_16_17_25
c 20 _r_16_17_26
c 21 _r_16_17_27
c 22 _r_16_17_45
c 23 _r_16_17_46
c 24 _r_16_17_47
c 25 _r_16_17_48
c 26 _r_16_17_49
c 27 _r_16_17_50
c 28 _r_16_17_51
c 29 _r_16_17_52
c 30 _r_28
c 31 _r_28_29_30
c 32 _r_28_29_31
c 33 _r_28_29_32
c 34 _r_33
c 35 _r_33_34_35
c 36 _r_33_34_36
c 37 _r_33_34_37
c 38 _r_33_34_38
c 39 _r_39
c 40 _r_39_41_42
c 41 _r_39_41_43
p cnf 41 201
1 0
-2 1 0
-1 2 0
-9 1 0
-1 9 0
-13 1 0
-1 13 0
-30 1 0
-1 30 0
-34 1 0
-1 34 0
-39 1 0
-1 39 0
-3 2 0
-4 2 0
-5 2 0
-6 2 0
-7 2 0
-8 2 0
-2 3 4 5 6 7 8 0
-3 -4 0
-3 -5 0
-3 -6 0
-3 -7 0
-3 -8 0
-4 -5 0
-4 -6 0
-4 -7 0
-4 -8 0
-5 -6 0
-5 -7 0
-5 -8 0
-6 -7 0
-6 -8 0
-7 -8 0
-10 9 0
-11 9 0
-12 9 0
-9 10 11 12 0
-10 -11 0
-10 -12 0
-11 -12 0
-14 13 0
-15 13 0
-16 13 0
-17 13 0
-18 13 0
-19 13 0
-20 13 0
-21 13 0
-22 13 0
-23 13 0
-24 13 0
-25 13 0
-26 13 0
-27 13 0
-28 13 0
-29 13 0
-13 14 15 16 17 18 19 20 21 22 23 24 25 26 27 28 29 0
-14 -15 0
-14 -16 0
-14 -17 0
-14 -18 0
-14 -19 0
-14 -20 0
-14 -21 0
-14 -22 0
-14 -23 0
-14 -24 0
-14 -25 0
-14 -26 0
-14 -27 0
-14 -28 0
-14 -29 0
-15 -16 0
-15 -17 0
-15 -18 0
-15 -19 0
-15 -20 0
-15 -21 0
-15 -22 0
-15 -23 0
-15 -24 0
-15 -25 0
-15 -26 0
-15 -27 0
-15 -28 0
-15 -29 0
-16 -17 0
-16 -18 0
-16 -19 0
-16 -20 0
-16 -21 0
-16 -22 0
-16 -23 0
-16 -24 0
-16 -25 0
-16 -26 0
-16 -27 0
-16 -28 0
-16 -29 0
-17 -18 0
-17 -19 0
-17 -20 0
-17 -21 0
-17 -22 0
-17 -23 0
-17 -24 0
-17 -25 0
-17 -26 0
-17 -27 0
-17 -28 0
-17 -29 0
-18 -19 0
-18 -20 0
-18 -21 0
-18 -22 0
-18 -23 0
-18 -24 0
-18 -25 0
-18 -26 0
-18 -27 0
-18 -28 0
-18 -29 0
-19 -20 0
-19 -21 0
-19 -22 0
-19 -23 0
-19 -24 0
-19 -25 0
-19 -26 0
-19 -27 0
-19 -28 0
-19 -29 0
-20 -21 0
-20 -22 0
-20 -23 0
-20 -24 0
-20 -25 0
-20 -26 0
-20 -27 0
-20 -28 0
-20 -29 0
-21 -22 0
-21 -23 0
-21 -24 0
-21 -25 0
-21 -26 0
-21 -27 0
-21 -28 0
-21 -29 0
-22 -23 0
-22 -24 0
-22 -25 0
-22 -26 0
-22 -27 0
-22 -28 0
-22 -29 0
-23 -24 0
-23 -25 0
-23 -26 0
-23 -27 0
-23 -28 0
-23 -29 0
-24 -25 0
-24 -26 0
-24 -27 0
-24 -28 0
-24 -29 0
-25 -26 0
-25 -27 0
-25 -28 0
-25 -29 0
-26 -27 0
-26 -28 0
-26 -29 0
-27 -28 0
-27 -29 0
-28 -29 0
-31 30 0
-32 30 0
-33 30 0
-30 31 32 33 0
-31 -32 0
-31 -33 0
-32 -33 0
-35 34 0
-36 34 0
-37 34 0
-38 34 0
-34 35 36 37 38 0
-35 -36 0
-35 -37 0
-35 -38 0
-36 -37 0
-36 -38 0
-37 -38 0
-40 39 0
-41 39 0
-39 40 41 0
-40 -41 0
